============================[ Problem Statistics ]=============================|                                                                             ||  Number of variables:          4242                                         ||  Number of clauses:           10483                                         ||  Parse time:                   0.87 s                                       ||                                                                             |============================[ Search Statistics ]==============================| Conflicts |          ORIGINAL         |          LEARNT          | Progress ||           |    Vars  Clauses Literals |    Limit  Clauses Lit/Cl |          |===============================================================================|       100 |    1591     6688  1388009 |     2452      100     53 | 62.501 % ||       250 |    1591     6688  1388009 |     2697      250     75 | 62.495 % |===============================================================================restarts              : 4conflicts             : 467            (356 /sec)decisions             : 826            (0.00 % random) (630 /sec)propagations          : 13780          (10511 /sec)conflict literals     : 39782          (94.44 % deleted)CPU time              : 1.311 sSATISFIABLE